local_stuff/loop_inv_stuff/loop_inv_oai/repo/z3/132.out
STDOUT:
unsat
(error "line 16 column 10: model is not available")


STDERR:
